<number of tasks>
35

<cycle time>
54

<task times>
1 29
2 3
3 5
4 22
5 6
6 14
7 2
8 5
9 22
10 30
11 23
12 30
13 23
14 2
15 19
16 29
17 2
18 2
19 19
20 29
21 6
22 10
23 16
24 23
25 5
26 5
27 5
28 40
29 2
30 5
31 5
32 1
33 40
34 2
35 2

<precedence relations>
1,2
1,5
1,10
1,12
2,3
3,4
4,11
5,6
6,7
6,8
7,14
7,18
8,9
9,13
10,14
11,28
11,33
12,18
13,28
13,33
14,15
15,16
16,21
17,20
18,19
19,20
20,21
21,22
21,25
21,30
22,23
23,24
24,27
25,26
26,27
27,28
27,33
27,34
28,29
30,31
31,32
32,33
33,35

<setup times forward>
1,2:2
1,10:2
1,12:1
2,3:3
2,5:2
2,6:2
2,7:2
2,8:3
2,9:3
2,12:1
2,13:1
2,16:1
2,17:2
2,18:1
2,19:3
2,20:3
2,21:3
2,22:2
2,23:2
2,24:2
2,25:2
2,26:4
2,27:4
2,30:1
2,31:1
2,32:1
2,34:4
3,5:1
3,6:1
3,7:1
3,10:3
3,12:2
3,13:2
3,14:3
3,15:3
3,16:2
3,17:1
3,18:2
3,22:1
3,23:1
3,24:1
3,25:1
3,26:1
3,27:1
3,30:2
3,31:2
3,32:2
3,34:1
4,5:1
4,6:1
4,7:1
4,10:3
4,11:2
4,12:2
4,13:2
4,14:3
4,15:3
4,16:2
4,17:1
4,18:2
4,22:1
4,23:1
4,24:1
4,25:1
4,26:1
4,27:1
4,30:2
4,31:2
4,32:2
4,34:1
5,2:2
5,3:1
5,4:1
5,10:2
5,11:1
5,12:1
6,2:2
6,3:1
6,4:1
6,8:1
6,10:2
6,11:1
6,12:1
7,2:2
7,3:1
7,4:1
7,8:1
7,9:1
7,10:2
7,11:1
7,12:1
7,13:1
7,14:2
7,18:1
8,2:3
8,7:1
8,10:3
8,11:2
8,12:2
8,14:3
8,15:3
8,16:2
8,17:1
8,18:2
8,22:1
8,23:1
8,24:1
8,25:1
8,26:1
8,27:1
8,30:2
8,31:2
8,32:2
8,34:1
9,2:3
9,7:1
9,10:3
9,11:2
9,12:2
9,13:2
9,14:3
9,15:3
9,16:2
9,17:1
9,18:2
9,22:1
9,23:1
9,24:1
9,25:1
9,26:1
9,27:1
9,30:2
9,31:2
9,32:2
9,34:1
10,3:3
10,4:3
10,5:2
10,6:2
10,7:2
10,8:3
10,9:3
10,11:1
10,12:1
10,13:1
10,17:2
10,18:1
10,19:3
10,20:3
11,5:1
11,6:1
11,7:1
11,8:2
11,9:2
11,10:1
11,14:1
11,15:1
11,17:1
11,19:2
11,20:2
11,21:2
11,22:1
11,23:1
11,24:1
11,25:1
11,26:3
11,27:3
11,28:3
11,34:3
12,2:1
12,3:2
12,4:2
12,5:1
12,6:1
12,7:1
12,8:2
12,9:2
12,10:1
12,14:1
12,15:1
12,17:1
13,2:1
13,3:2
13,4:2
13,7:1
13,10:1
13,14:1
13,15:1
13,17:1
13,19:2
13,20:2
13,21:2
13,22:1
13,23:1
13,24:1
13,25:1
13,26:3
13,27:3
13,28:3
13,34:3
14,3:3
14,4:3
14,8:3
14,9:3
14,11:1
14,12:1
14,13:1
14,17:2
14,18:1
14,19:3
14,20:3
15,3:3
15,4:3
15,8:3
15,9:3
15,11:1
15,12:1
15,13:1
15,16:1
15,17:2
15,18:1
15,19:3
15,20:3
16,2:1
16,3:2
16,4:2
16,8:2
16,9:2
16,17:1
16,19:2
16,20:2
16,21:2
17,2:2
17,3:1
17,4:1
17,8:1
17,9:1
17,10:2
17,11:1
17,12:1
17,13:1
17,14:2
17,15:2
17,16:1
17,18:1
17,19:1
17,20:1
18,2:1
18,3:2
18,4:2
18,8:2
18,9:2
18,10:1
18,14:1
18,15:1
18,17:1
18,19:2
19,2:3
19,10:3
19,11:2
19,13:2
19,14:3
19,15:3
19,16:2
19,17:1
20,2:3
20,10:3
20,11:2
20,13:2
20,14:3
20,15:3
20,16:2
21,2:3
21,11:2
21,13:2
21,22:1
21,25:1
21,30:2
22,2:2
22,3:1
22,4:1
22,8:1
22,9:1
22,11:1
22,13:1
22,26:2
22,30:1
22,31:1
22,32:1
23,2:2
23,3:1
23,4:1
23,8:1
23,9:1
23,11:1
23,13:1
23,26:2
23,30:1
23,31:1
23,32:1
24,2:2
24,3:1
24,4:1
24,8:1
24,9:1
24,11:1
24,13:1
24,26:2
24,27:2
24,30:1
24,31:1
24,32:1
25,2:2
25,3:1
25,4:1
25,8:1
25,9:1
25,11:1
25,13:1
25,26:2
25,30:1
25,31:1
25,32:1
26,2:4
26,3:1
26,4:1
26,8:1
26,9:1
26,11:3
26,13:3
26,22:2
26,23:2
26,24:2
26,30:3
26,31:3
26,32:3
27,2:4
27,3:1
27,4:1
27,8:1
27,9:1
27,11:3
27,13:3
27,30:3
27,31:3
27,32:3
27,33:3
28,30:3
28,31:3
28,32:3
28,33:3
28,35:3
29,30:3
29,31:3
29,32:3
29,33:3
29,35:3
30,2:1
30,3:2
30,4:2
30,8:2
30,9:2
30,22:1
30,23:1
30,24:1
30,25:1
30,26:3
30,27:3
30,28:3
30,29:3
30,34:3
31,2:1
31,3:2
31,4:2
31,8:2
31,9:2
31,22:1
31,23:1
31,24:1
31,25:1
31,26:3
31,27:3
31,28:3
31,29:3
31,34:3
32,2:1
32,3:2
32,4:2
32,8:2
32,9:2
32,22:1
32,23:1
32,24:1
32,25:1
32,26:3
32,27:3
32,28:3
32,29:3
32,34:3
33,28:3
33,29:3
33,34:3
34,2:4
34,3:1
34,4:1
34,8:1
34,9:1
34,11:3
34,13:3
34,30:3
34,31:3
34,32:3
34,33:3
34,35:3
35,28:3
35,29:3
35,34:3

<setup times backward>
2,1:2
2,5:2
2,6:2
2,7:2
2,8:3
2,9:3
2,12:1
2,13:1
2,16:1
2,17:2
2,18:1
2,19:3
2,20:3
2,21:3
2,22:2
2,23:2
2,24:2
2,25:2
2,26:4
2,27:4
2,30:1
2,31:1
2,32:1
2,34:4
3,26:1
3,27:1
3,34:1
4,26:1
4,27:1
4,34:1
5,3:1
5,4:1
6,3:1
6,4:1
7,3:1
7,4:1
7,8:1
7,9:1
8,26:1
8,27:1
8,34:1
9,26:1
9,27:1
9,34:1
10,1:2
10,3:3
10,4:3
10,5:2
10,6:2
10,7:2
10,8:3
10,9:3
10,11:1
10,12:1
10,13:1
10,17:2
10,18:1
10,19:3
10,20:3
11,1:1
11,3:2
11,4:2
11,5:1
11,6:1
11,7:1
11,8:2
11,9:2
11,17:1
11,19:2
11,20:2
11,21:2
11,22:1
11,23:1
11,24:1
11,25:1
11,26:3
11,27:3
11,34:3
12,1:1
12,3:2
12,4:2
12,5:1
12,6:1
12,7:1
12,8:2
12,9:2
12,17:1
13,1:1
13,3:2
13,4:2
13,5:1
13,6:1
13,7:1
13,8:2
13,9:2
13,17:1
13,19:2
13,20:2
13,21:2
13,22:1
13,23:1
13,24:1
13,25:1
13,26:3
13,27:3
13,34:3
14,1:2
14,3:3
14,4:3
14,5:2
14,6:2
14,7:2
14,8:3
14,9:3
14,11:1
14,12:1
14,13:1
14,17:2
14,18:1
14,19:3
14,20:3
15,1:2
15,3:3
15,4:3
15,5:2
15,6:2
15,7:2
15,8:3
15,9:3
15,11:1
15,12:1
15,13:1
15,17:2
15,18:1
15,19:3
15,20:3
16,1:1
16,3:2
16,4:2
16,5:1
16,6:1
16,7:1
16,8:2
16,9:2
16,17:1
16,19:2
16,20:2
17,3:1
17,4:1
17,8:1
17,9:1
17,19:1
18,1:1
18,3:2
18,4:2
18,5:1
18,6:1
18,7:1
18,8:2
18,9:2
18,17:1
22,3:1
22,4:1
22,8:1
22,9:1
22,19:1
22,20:1
22,21:1
22,26:2
23,3:1
23,4:1
23,8:1
23,9:1
23,19:1
23,20:1
23,21:1
23,26:2
24,3:1
24,4:1
24,8:1
24,9:1
24,19:1
24,20:1
24,21:1
24,26:2
25,3:1
25,4:1
25,8:1
25,9:1
25,19:1
25,20:1
25,21:1
30,1:1
30,3:2
30,4:2
30,5:1
30,6:1
30,7:1
30,8:2
30,9:2
30,17:1
30,19:2
30,20:2
30,21:2
30,22:1
30,23:1
30,24:1
30,25:1
30,26:3
30,27:3
30,28:3
30,29:3
30,34:3
31,1:1
31,3:2
31,4:2
31,5:1
31,6:1
31,7:1
31,8:2
31,9:2
31,17:1
31,19:2
31,20:2
31,21:2
31,22:1
31,23:1
31,24:1
31,25:1
31,26:3
31,27:3
31,28:3
31,29:3
31,34:3
32,1:1
32,3:2
32,4:2
32,5:1
32,6:1
32,7:1
32,8:2
32,9:2
32,17:1
32,19:2
32,20:2
32,21:2
32,22:1
32,23:1
32,24:1
32,25:1
32,26:3
32,27:3
32,28:3
32,29:3
32,34:3
33,1:1
33,3:2
33,4:2
33,5:1
33,6:1
33,7:1
33,8:2
33,9:2
33,17:1
33,19:2
33,20:2
33,21:2
33,22:1
33,23:1
33,24:1
33,25:1
33,26:3
33,27:3
33,28:3
33,29:3
33,34:3
35,1:1
35,3:2
35,4:2
35,5:1
35,6:1
35,7:1
35,8:2
35,9:2
35,17:1
35,19:2
35,20:2
35,21:2
35,22:1
35,23:1
35,24:1
35,25:1
35,26:3
35,27:3
35,28:3
35,29:3
35,34:3

<end>

<optimal SALBP-1 value>
9


<rand seed>
467321153

